100
128
2
8
44
4
36
17
60
54
20
23
29
56
34
7
51
46
21
59
8
31
7
15
24
50
64
32
32
46
50
32
61
39
28
28
34
37
8
47
17
14
62
16
50
61
13
61
11
60
61
21
54
42
63
38
45
17
35
28
39
54
20
23
60
47
30
26
36
36
1
17
15
62
44
21
28
8
40
52
62
30
36
45
30
53
33
64
31
3
64
25
44
32
64
2
62
52
39
4
64
64